db/data/2374825171304091755811058172812683516262.z3.out
solvers/z3/run.sh: line 2: 67939 Killed                  z3 -smt2 $1
-------------------
89.903357573
